100 3 100
24 97 29 1 35 86 92 65 71 56 27 77 94 65 51 96 62 49 86 11 49 26 4 6 78 1 95 17 8 18 63 32 67 44 33 54 30 25 72 2 33 99 79 28 64 82 76 78 31 15 41 32 93 45 90 72 99 38 41 7 56 4 91 75 49 24 82 31 1 54 33 86 5 64 66 70 98 43 29 10 42 13 3 39 56 27 38 94 69 45 2 25 36 29 74 12 11 58 65 17 
